Set parameter TokenServer to value "hpc-licenses.hpcc.usc.edu"
Set parameter TimeLimit to value 3600
Gurobi Optimizer version 9.5.1 build v9.5.1rc2 (linux64)
Thread count: 20 physical cores, 20 logical processors, using up to 20 threads
Optimize a model with 6007 rows, 4529 columns and 24534 nonzeros
Model fingerprint: 0x44ea7666
Variable types: 4506 continuous, 23 integer (23 binary)
Coefficient statistics:
  Matrix range     [1e+00, 1e+00]
  Objective range  [9e-05, 4e+00]
  Bounds range     [1e+00, 1e+00]
  RHS range        [1e+00, 1e+02]
Presolve removed 1520 rows and 1515 columns
Presolve time: 0.09s
Presolved: 4487 rows, 3014 columns, 21975 nonzeros
Variable types: 2994 continuous, 20 integer (20 binary)
Found heuristic solution: objective 263.9223908
Found heuristic solution: objective 264.5947105

Root relaxation: objective 2.767605e+02, 2970 iterations, 0.15 seconds (0.18 work units)

    Nodes    |    Current Node    |     Objective Bounds      |     Work
 Expl Unexpl |  Obj  Depth IntInf | Incumbent    BestBd   Gap | It/Node Time

     0     0  276.76053    0    2  264.59471  276.76053  4.60%     -    0s
     0     0  276.72573    0    2  264.59471  276.72573  4.58%     -    0s
     0     0  276.69096    0    2  264.59471  276.69096  4.57%     -    0s
H    0     0                     266.2263095  276.69096  3.93%     -    0s
     0     0  276.04782    0    5  266.22631  276.04782  3.69%     -    0s
     0     0  275.95517    0    5  266.22631  275.95517  3.65%     -    0s
     0     0  275.54454    0    5  266.22631  275.54454  3.50%     -    0s
     0     0  275.51663    0    5  266.22631  275.51663  3.49%     -    0s
     0     0  275.41368    0    5  266.22631  275.41368  3.45%     -    0s
     0     0  275.39160    0    5  266.22631  275.39160  3.44%     -    0s
     0     0  275.37672    0    5  266.22631  275.37672  3.44%     -    0s
     0     0  275.36440    0    5  266.22631  275.36440  3.43%     -    0s
     0     0  275.34175    0    5  266.22631  275.34175  3.42%     -    0s
     0     0  275.32259    0    5  266.22631  275.32259  3.42%     -    1s
     0     0  275.30623    0    5  266.22631  275.30623  3.41%     -    1s
     0     0  275.29163    0    5  266.22631  275.29163  3.41%     -    1s
     0     0  275.28739    0    5  266.22631  275.28739  3.40%     -    1s
     0     0  275.27340    0    5  266.22631  275.27340  3.40%     -    1s
     0     0  275.26159    0    5  266.22631  275.26159  3.39%     -    1s
     0     0  275.23269    0    5  266.22631  275.23269  3.38%     -    1s
     0     0  275.21769    0    5  266.22631  275.21769  3.38%     -    1s
     0     0  275.20280    0    5  266.22631  275.20280  3.37%     -    1s
     0     0  275.18938    0    5  266.22631  275.18938  3.37%     -    1s
     0     0  275.15418    0    5  266.22631  275.15418  3.35%     -    1s
     0     0  275.13652    0    5  266.22631  275.13652  3.35%     -    1s
     0     0  275.10199    0    7  266.22631  275.10199  3.33%     -    1s
     0     0  275.08829    0    7  266.22631  275.08829  3.33%     -    1s
     0     0  275.07877    0    6  266.22631  275.07877  3.33%     -    1s
     0     0  275.06438    0    6  266.22631  275.06438  3.32%     -    1s
     0     0  274.40524    0    6  266.22631  274.40524  3.07%     -    1s
     0     0  274.40524    0    8  266.22631  274.40524  3.07%     -    1s
     0     0  274.40524    0    5  266.22631  274.40524  3.07%     -    1s
     0     0  274.24841    0    8  266.22631  274.24841  3.01%     -    1s
     0     0  274.24841    0    7  266.22631  274.24841  3.01%     -    1s
     0     0  274.24841    0    8  266.22631  274.24841  3.01%     -    1s
     0     0  274.24841    0    7  266.22631  274.24841  3.01%     -    1s
     0     0  274.24841    0    7  266.22631  274.24841  3.01%     -    1s
H    0     0                     267.8133454  274.24841  2.40%     -    1s
     0     0  274.10230    0    7  267.81335  274.10230  2.35%     -    1s
     0     0  274.10230    0    7  267.81335  274.10230  2.35%     -    1s
     0     0  274.10230    0    8  267.81335  274.10230  2.35%     -    1s
H    0     0                     269.0689017  274.05987  1.85%     -    1s
     0     0  273.82265    0    7  269.06890  273.82265  1.77%     -    1s
     0     0  273.82265    0    7  269.06890  273.82265  1.77%     -    1s
     0     2  273.82265    0    7  269.06890  273.82265  1.77%     -    1s
*   12     2               6     269.3836505  273.53143  1.54%   184    2s

Cutting planes:
  Gomory: 2
  MIR: 202
  Flow cover: 1
  RLT: 12
  Relax-and-lift: 4

Explored 33 nodes (10265 simplex iterations) in 3.41 seconds (2.07 work units)
Thread count was 20 (of 20 available processors)

Solution count 6: 269.384 269.069 267.813 ... 263.922

Optimal solution found (tolerance 1.00e-04)
Best objective 2.693836505169e+02, best bound 2.693836505169e+02, gap 0.0000%



#########node  1
V1.7
#########node  2
0.11564625850340138,0.8843537414965986
#########node  3
1.0,0.0


Total Solving Time 3.8482959270477295
obj value 269.38365051686816
Policy Regret train (Sum) 9.912030792665206
Best Treatment Found train (%) 57.599999999999994
treatment classification acc train (%) 72.8
Policy Regret test (Sum) 38.72832714295484
Best Treatment Found test (%) 81.04
treatment classification acc test (%) 74.56
